# Solution for model problem_
# Objective value = 2.9768536331173029e+04
x(0_0) 0
x(0_1) 0
x(0_2) 0
x(0_3) 0
x(0_4) 0
x(0_5) 0
x(0_6) 1
x(0_7) 0
x(0_8) 0
x(0_9) 0
x(1_10) 1
x(1_11) 0
x(1_12) 0
x(1_13) 0
x(1_14) 0
x(1_15) 0
x(1_16) 0
x(1_17) 0
x(1_18) 0
x(1_19) 0
x(1_20) 0
x(2_21) 0
x(2_22) 0
x(2_23) 0
x(2_24) 0
x(2_25) 0
x(2_26) 0
x(2_27) 0
x(2_28) 0
x(2_29) 0
x(2_30) 0
x(2_31) 0
x(2_32) 0
x(2_33) 0
x(2_34) 0
x(2_35) 0
x(2_36) 1
x(2_37) 0
x(2_38) 0
x(3_39) 0
x(3_40) 0
x(3_41) 0
x(3_42) 0
x(3_43) 0
x(3_44) 0
x(3_45) 0
x(3_46) 0
x(3_47) 0
x(3_48) 0
x(3_49) 0
x(3_50) 1
x(3_51) 0
x(3_52) 0
x(4_53) 0
x(4_54) 0
x(4_55) 0
x(4_56) 0
x(4_57) 0
x(4_58) 1
x(4_59) 0
x(4_60) 0
x(4_61) 0
x(4_62) 0
x(4_63) 0
x(4_64) 0
x(4_65) 0
x(4_66) 0
x(4_67) 0
x(4_68) 0
x(5_69) 0
x(5_70) 1
x(5_71) 0
x(5_72) 0
x(5_73) 0
x(5_74) 0
x(5_75) 0
x(5_76) 0
x(5_77) 0
x(5_78) 0
x(5_79) 0
x(5_80) 0
x(5_81) 0
x(5_82) 0
x(5_83) 0
x(5_84) 0
x(5_85) 0
x(6_86) 0
x(6_87) 0
x(6_88) 0
x(6_89) 0
x(6_90) 0
x(6_91) 0
x(6_92) 0
x(6_93) 0
x(6_94) 1
x(6_95) 0
x(6_96) 0
x(7_97) 0
x(7_98) 0
x(7_99) 0
x(7_100) 0
x(7_101) 0
x(7_102) 0
x(7_103) 0
x(7_104) 0
x(7_105) 0
x(7_106) 1
x(7_107) 0
x(8_108) 1
x(8_109) 0
x(8_110) 0
x(8_111) 0
x(8_112) 0
x(8_113) 0
x(8_114) 0
x(8_115) 0
x(8_116) 0
x(8_117) 0
x(8_118) 0
x(8_119) 0
x(8_120) 0
x(8_121) 0
x(8_122) 0
x(8_123) 0
x(8_124) 0
x(9_125) 0
x(9_126) 0
x(9_127) 0
x(9_128) 0
x(9_129) 0
x(9_130) 1
x(9_131) 0
x(9_132) 0
x(9_133) 0
x(9_134) 0
x(9_135) 0
x(9_136) 0
x(9_137) 0
x(10_138) 0
x(10_139) 0
x(10_140) 0
x(10_141) 0
x(10_142) 0
x(10_143) 0
x(10_144) 0
x(10_145) 0
x(10_146) 0
x(10_147) 0
x(10_148) 1
x(10_149) 0
x(10_150) 0
x(10_151) 0
x(10_152) 0
x(10_153) 0
x(10_154) 0
x(11_155) 0
x(11_156) 0
x(11_157) 1
x(11_158) 0
x(11_159) 0
x(11_160) 0
x(11_161) 0
x(11_162) 0
x(11_163) 0
x(11_164) 0
x(11_165) 0
x(11_166) 0
x(11_167) 0
x(12_168) 0
x(12_169) 0
x(12_170) 0
x(12_171) 0
x(12_172) 0
x(12_173) 0
x(12_174) 0
x(12_175) 0
x(12_176) 0
x(12_177) 0
x(12_178) 1
x(12_179) 0
x(12_180) 0
x(12_181) 0
x(12_182) 0
x(12_183) 0
x(12_184) 0
x_1_0 5.3088475227355957e+01
s_1_0 0
z_1_0 0
x_1_1 53.6284544467926
s_1_1 0
z_1_1 0
x_1_2 0
s_1_2 6.2489870702847838e-01
z_1_2 1
x_1_3 0
s_1_3 7.2600621730089188e-01
z_1_3 1
x_1_4 5.3071976900100708e+01
s_1_4 0
z_1_4 0
x_1_5 0
s_1_5 6.8408965039998293e-01
z_1_5 1
x_1_6 5.3726154327392578e+01
s_1_6 0
z_1_6 0
x_1_7 5.3594223022460938e+01
s_1_7 0
z_1_7 0
x_1_8 0
s_1_8 5.1858613826334476e-01
z_1_8 1
x_1_9 5.3685827016830444e+01
s_1_9 0
z_1_9 0
x_1_10 0
s_1_10 0.524147029267624
z_1_10 1
x_1_11 5.3154191970825195e+01
s_1_11 0
z_1_11 0
x_1_12 5.3276379823684692e+01
s_1_12 0
z_1_12 0
x_1_13 5.3547595500946045e+01
s_1_13 0
z_1_13 0
x_1_14 0
s_1_14 5.6145066488534212e-01
z_1_14 1
x_1_15 0
s_1_15 6.6242135828360915e-01
z_1_15 1
x_1_16 5.3593362331390381e+01
s_1_16 0
z_1_16 0
x_1_17 5.3236453533172607e+01
s_1_17 0
z_1_17 0
x_1_18 5.3399475097656250e+01
s_1_18 0
z_1_18 0
x_1_19 0
s_1_19 4.5965810911729932e-01
z_1_19 1
x_1_20 5.3104388475418091e+01
s_1_20 0
z_1_20 0
x_1_21 5.3251932382583618e+01
s_1_21 0
z_1_21 0
x_1_22 5.3497283220291138e+01
s_1_22 0
z_1_22 0
x_1_23 5.3388786792755127e+01
s_1_23 0
z_1_23 0
x_1_24 5.3233496189117432e+01
s_1_24 0
z_1_24 0
x_1_25 5.2214756965637207e+01
s_1_25 0
z_1_25 0
x_1_26 0
s_1_26 6.4852568041533232e-01
z_1_26 1
x_1_27 5.3388608455657959e+01
s_1_27 0
z_1_27 0
x_1_28 0
s_1_28 4.8671453818678856e-01
z_1_28 1
x_1_29 5.2839482545852661e+01
s_1_29 0
z_1_29 0
x_1_30 5.2243893146514893e+01
s_1_30 0
z_1_30 0
x_1_31 0
s_1_31 4.7921747760847211e-01
z_1_31 1
x_1_32 5.3011064291000366e+01
s_1_32 0
z_1_32 0
x_1_33 0
s_1_33 5.3618114441633224e-01
z_1_33 1
x_1_34 5.3852362155914307e+01
s_1_34 0
z_1_34 0
x_1_35 5.3097035884857178e+01
s_1_35 0
z_1_35 0
x_1_36 0
s_1_36 2.4490858591161668e-01
z_1_36 1
x_1_37 5.3591691493988037e+01
s_1_37 0
z_1_37 0
x_1_38 0
s_1_38 8.0786564643494785e-01
z_1_38 1
x_1_39 5.3541534900665283e+01
s_1_39 0
z_1_39 0
x_1_40 5.3408500194549561e+01
s_1_40 0
z_1_40 0
x_1_41 5.3108210325241089e+01
s_1_41 0
z_1_41 0
x_1_42 5.3404675722122192e+01
s_1_42 0
z_1_42 0
x_1_43 5.2971225738525391e+01
s_1_43 0
z_1_43 0
x_1_44 5.3371872425079346e+01
s_1_44 0
z_1_44 0
x_1_45 0
s_1_45 5.1877562282606959e-01
z_1_45 1
x_1_46 5.3442902803421021e+01
s_1_46 0
z_1_46 0
x_1_47 0
s_1_47 3.4828591068799142e-01
z_1_47 1
x_1_48 5.2887283563613892e+01
s_1_48 0
z_1_48 0
x_1_49 53.0463445186615
s_1_49 0
z_1_49 0
x_1_50 5.2873169422149658e+01
s_1_50 0
z_1_50 0
x_1_51 0
s_1_51 7.9019605601206422e-01
z_1_51 1
x_1_52 0
s_1_52 3.5231540445238352e-01
z_1_52 1
x_1_53 5.3725441932678223e+01
s_1_53 0
z_1_53 0
x_1_54 5.2659772634506226e+01
s_1_54 0
z_1_54 0
x_1_55 5.3187912464141846e+01
s_1_55 0
z_1_55 0
x_1_56 0
s_1_56 4.2520657624118030e-01
z_1_56 1
x_1_57 5.3028613805770874e+01
s_1_57 0
z_1_57 0
x_1_58 5.3100424289703369e+01
s_1_58 0
z_1_58 0
x_1_59 5.3793901443481445e+01
s_1_59 0
z_1_59 0
x_1_60 5.3863965272903442e+01
s_1_60 0
z_1_60 0
x_1_61 5.2221883535385132e+01
s_1_61 0
z_1_61 0
x_1_62 5.2885940074920654e+01
s_1_62 0
z_1_62 0
x_1_63 0
s_1_63 4.6071558631956577e-01
z_1_63 1
x_1_64 5.3219427824020386e+01
s_1_64 0
z_1_64 0
x_1_65 5.3218366622924805e+01
s_1_65 0
z_1_65 0
x_1_66 0
s_1_66 7.0828558364883065e-01
z_1_66 1
x_1_67 5.3088186740875244e+01
s_1_67 0
z_1_67 0
x_1_68 5.3538304805755615e+01
s_1_68 0
z_1_68 0
x_1_69 0
s_1_69 5.0817230134271085e-01
z_1_69 1
x_1_70 0
s_1_70 4.2122715426376089e-01
z_1_70 1
x_1_71 5.3581138372421265e+01
s_1_71 0
z_1_71 0
x_1_72 5.2985813379287720e+01
s_1_72 0
z_1_72 0
x_1_73 5.2917038679122925e+01
s_1_73 0
z_1_73 0
x_1_74 53.2739360332489
s_1_74 0
z_1_74 0
x_1_75 53.4408745765686
s_1_75 0
z_1_75 0
x_1_76 5.3632880449295044e+01
s_1_76 0
z_1_76 0
x_1_77 53.3317756652832
s_1_77 0
z_1_77 0
x_1_78 0
s_1_78 8.0743979569524527e-01
z_1_78 1
x_1_79 5.3320987939834595e+01
s_1_79 0
z_1_79 0
x_1_80 5.3693232536315918e+01
s_1_80 0
z_1_80 0
x_1_81 5.1477404832839966e+01
s_1_81 0
z_1_81 0
x_1_82 5.3786566972732544e+01
s_1_82 0
z_1_82 0
x_1_83 5.3510316133499146e+01
s_1_83 0
z_1_83 0
x_1_84 5.3268887042999268e+01
s_1_84 0
z_1_84 0
x_1_85 0
s_1_85 5.0474390533054247e-01
z_1_85 1
x_1_86 5.3815482854843140e+01
s_1_86 0
z_1_86 0
x_1_87 0
s_1_87 4.5919321104884148e-01
z_1_87 1
x_1_88 0
s_1_88 4.9471725267358124e-01
z_1_88 1
x_1_89 0
s_1_89 5.6133647728711367e-01
z_1_89 1
x_1_90 5.2864104509353638e+01
s_1_90 0
z_1_90 0
x_1_91 53.1451141834259
s_1_91 0
z_1_91 0
x_1_92 5.2763221740722656e+01
s_1_92 0
z_1_92 0
x_1_93 0
s_1_93 6.6230856720358133e-01
z_1_93 1
x_1_94 5.3120678663253784e+01
s_1_94 0
z_1_94 0
x_1_95 5.3316850185394287e+01
s_1_95 0
z_1_95 0
x_1_96 5.3146269559860229e+01
s_1_96 0
z_1_96 0
x_1_97 0
s_1_97 5.5795109830796719e-01
z_1_97 1
x_1_98 5.3217954397201538e+01
s_1_98 0
z_1_98 0
x_1_99 0
s_1_99 6.4251706260256469e-01
z_1_99 1
x_1_100 0
s_1_100 5.5402213847264647e-01
z_1_100 1
x_1_101 5.1825914859771729e+01
s_1_101 0
z_1_101 0
x_1_102 5.3539700508117676e+01
s_1_102 0
z_1_102 0
x_1_103 0
s_1_103 9.9556174315512180e-01
z_1_103 1
x_1_104 5.2925417661666870e+01
s_1_104 0
z_1_104 0
x_1_105 0
s_1_105 6.4340978162363172e-01
z_1_105 1
x_1_106 5.3310696125030518e+01
s_1_106 0
z_1_106 0
x_1_107 0
s_1_107 3.9784376474563032e-01
z_1_107 1
x_1_108 5.3452877998352051e+01
s_1_108 0
z_1_108 0
x_1_109 5.3677326202392578e+01
s_1_109 0
z_1_109 0
x_1_110 0
s_1_110 6.2475893087685108e-01
z_1_110 1
x_1_111 5.3351064682006836e+01
s_1_111 0
z_1_111 0
x_1_112 5.4013168096542358e+01
s_1_112 0
z_1_112 0
x_1_113 5.3363506078720093e+01
s_1_113 0
z_1_113 0
x_1_114 52.9144184589386
s_1_114 0
z_1_114 0
x_1_115 5.3621041774749756e+01
s_1_115 0
z_1_115 0
x_1_116 0
s_1_116 3.1327590218279511e-01
z_1_116 1
x_1_117 5.3021752595901489e+01
s_1_117 0
z_1_117 0
x_1_118 5.1740958690643311e+01
s_1_118 0
z_1_118 0
x_1_119 5.3571653127670288e+01
s_1_119 0
z_1_119 0
x_1_120 5.3300334692001343e+01
s_1_120 0
z_1_120 0
x_1_121 5.2806237697601318e+01
s_1_121 0
z_1_121 0
x_1_122 5.3329400300979614e+01
s_1_122 0
z_1_122 0
x_1_123 0
s_1_123 8.0337247112765908e-02
z_1_123 1
x_1_124 0
s_1_124 4.5796239376068115e-01
z_1_124 1
x_1_125 5.3633203029632568e+01
s_1_125 0
z_1_125 0
x_1_126 0
s_1_126 5.9720660536549985e-01
z_1_126 1
x_1_127 0
s_1_127 3.7873280579515267e-01
z_1_127 1
x_1_128 5.3585926771163940e+01
s_1_128 0
z_1_128 0
x_1_129 5.3697076559066772e+01
s_1_129 0
z_1_129 0
x_1_130 53.4628586769104
s_1_130 0
z_1_130 0
x_1_131 5.3780132293701172e+01
s_1_131 0
z_1_131 0
x_1_132 0
s_1_132 5.6541102658957243e-01
z_1_132 1
x_1_133 5.2439004898071289e+01
s_1_133 0
z_1_133 0
x_1_134 0
s_1_134 3.7763967923820019e-01
z_1_134 1
x_1_135 5.3584495782852173e+01
s_1_135 0
z_1_135 0
x_1_136 53.8945415019989
s_1_136 0
z_1_136 0
x_1_137 5.2921606779098511e+01
s_1_137 0
z_1_137 0
x_1_138 0
s_1_138 4.5875084307044744e-01
z_1_138 1
x_1_139 5.3332336425781250e+01
s_1_139 0
z_1_139 0
x_1_140 5.2954926252365112e+01
s_1_140 0
z_1_140 0
x_1_141 0
s_1_141 4.0273446915671229e-01
z_1_141 1
x_1_142 5.3630524635314941e+01
s_1_142 0
z_1_142 0
x_1_143 0
s_1_143 4.2955143353901803e-01
z_1_143 1
x_1_144 5.2540118694305420e+01
s_1_144 0
z_1_144 0
x_1_145 0
s_1_145 6.7719502840191126e-01
z_1_145 1
x_1_146 5.3619255304336548e+01
s_1_146 0
z_1_146 0
x_1_147 0
s_1_147 0.0961295054294169
z_1_147 1
x_1_148 53.611163854599
s_1_148 0
z_1_148 0
x_1_149 5.3717982769012451e+01
s_1_149 0
z_1_149 0
x_1_150 5.3528105974197388e+01
s_1_150 0
z_1_150 0
x_1_151 5.3443060159683228e+01
s_1_151 0
z_1_151 0
x_1_152 5.3578335285186768e+01
s_1_152 0
z_1_152 0
x_1_153 5.3250763654708862e+01
s_1_153 0
z_1_153 0
x_1_154 0
s_1_154 2.0972081599757075e-01
z_1_154 1
x_1_155 53.2065155506134
s_1_155 0
z_1_155 0
x_1_156 5.3230635881423950e+01
s_1_156 0
z_1_156 0
x_1_157 0
s_1_157 3.7699802964925766e-01
z_1_157 1
x_1_158 0
s_1_158 0.64837239444023
z_1_158 1
x_1_159 5.3049253702163696e+01
s_1_159 0
z_1_159 0
x_2_0 2.9645556331173029e+04
